  PREC = Accurate
IBRION = -1
 ENCUT = 520
 EDIFF = 1.0e-08
ISMEAR = 0; SIGMA = 0.01
 IALGO = 38
 LREAL = .FALSE.
 LWAVE = .FALSE.
LCHARG = .FALSE.
ADDGRID = .TRUE.