Analcime
1.0
       13.7299995422         0.0000000000         0.0000000000
        0.0000000000        13.7299995422         0.0000000000
        0.0000000000         0.0000000000        13.7299995422
   Na   Si   Al    O    H
   16   32   16  112   32
Direct
     0.125000000         0.000000000         0.250000000
     0.875000035         0.000000000         0.750000000
     0.375000000         0.000000000         0.750000000
     0.624999965         0.000000000         0.250000000
     0.875000035         0.500000000         0.250000000
     0.125000000         0.500000000         0.750000000
     0.624999965         0.500000000         0.750000000
     0.375000000         0.500000000         0.250000000
     0.250000000         0.125000000         0.000000000
     0.750000000         0.875000035         0.000000000
     0.750000000         0.375000000         0.000000000
     0.250000000         0.624999965         0.000000000
     0.250000000         0.875000035         0.500000000
     0.750000000         0.125000000         0.500000000
     0.750000000         0.624999965         0.500000000
     0.250000000         0.375000000         0.500000000
     0.662079977         0.587920023         0.125000000
     0.337920023         0.412079977         0.875000035
     0.837920023         0.412079977         0.624999965
     0.162080046         0.587920023         0.375000000
     0.337920023         0.087920014         0.375000000
     0.662079977         0.912079977         0.624999965
     0.162080046         0.912079977         0.875000035
     0.837920023         0.087920014         0.125000000
     0.125000000         0.662079977         0.587920023
     0.875000035         0.337920023         0.412079977
     0.624999965         0.837920023         0.412079977
     0.375000000         0.162080046         0.587920023
     0.375000000         0.337920023         0.087920014
     0.624999965         0.662079977         0.912079977
     0.875000035         0.162080046         0.912079977
     0.125000000         0.837920023         0.087920014
     0.587920023         0.125000000         0.662079977
     0.412079977         0.875000035         0.337920023
     0.412079977         0.624999965         0.837920023
     0.587920023         0.375000000         0.162080046
     0.087920014         0.375000000         0.337920023
     0.912079977         0.624999965         0.662079977
     0.912079977         0.875000035         0.162080046
     0.087920014         0.125000000         0.837920023
     0.337920023         0.912079977         0.125000000
     0.662079977         0.087920014         0.875000035
     0.162080046         0.087920014         0.624999965
     0.837920023         0.912079977         0.375000000
     0.837920023         0.587920023         0.875000035
     0.162080046         0.412080046         0.125000000
     0.662079977         0.412080046         0.375000000
     0.337920023         0.587920023         0.624999965
     0.412080046         0.375000000         0.662079977
     0.587920023         0.624999965         0.337920023
     0.587920023         0.875000035         0.837920023
     0.412080046         0.125000000         0.162080046
     0.087920014         0.624999965         0.162080046
     0.912079977         0.375000000         0.837920023
     0.912079977         0.125000000         0.337920023
     0.087920014         0.875000035         0.662079977
     0.875000035         0.837920023         0.587920023
     0.125000000         0.162080046         0.412080046
     0.375000000         0.662079977         0.412080046
     0.624999965         0.337920023         0.587920023
     0.125000000         0.337920023         0.912079977
     0.875000035         0.662079977         0.087920014
     0.624999965         0.162080046         0.087920014
     0.375000000         0.837920023         0.912079977
     0.104280001         0.134399996         0.719320025
     0.895719982         0.865599987         0.280680009
     0.395720016         0.865599987         0.219320060
     0.604280018         0.134399996         0.780679975
     0.895719982         0.634400013         0.780679975
     0.104280001         0.365599987         0.219320060
     0.604280018         0.365599987         0.280680009
     0.395720016         0.634400013         0.719320025
     0.719320025         0.104280001         0.134399996
     0.280680009         0.895719982         0.865599987
     0.219320060         0.395720016         0.865599987
     0.780679975         0.604280018         0.134399996
     0.780679975         0.895719982         0.634400013
     0.219320060         0.104280001         0.365599987
     0.280680009         0.604280018         0.365599987
     0.719320025         0.395720016         0.634400013
     0.134399996         0.719320025         0.104280001
     0.865599987         0.280680009         0.895719982
     0.865599987         0.219320060         0.395720016
     0.134399996         0.780679975         0.604280018
     0.634400013         0.780679975         0.895719982
     0.365599987         0.219320060         0.104280001
     0.365599987         0.280680009         0.604280018
     0.634400013         0.719320025         0.395720016
     0.884400013         0.354279984         0.530680009
     0.115600004         0.645719982         0.469320060
     0.615599987         0.645719982         0.030680001
     0.384400013         0.354279984         0.969320025
     0.384400013         0.145719999         0.469320060
     0.615599987         0.854280018         0.530680009
     0.115600004         0.854280018         0.969320025
     0.884400013         0.145719999         0.030680001
     0.854280018         0.969320025         0.115600004
     0.145719999         0.030680001         0.884400013
     0.145719999         0.469320060         0.384400013
     0.854280018         0.530680009         0.615599987
     0.645719982         0.030680001         0.615599987
     0.354279984         0.969320025         0.384400013
     0.354279984         0.530680009         0.884400013
     0.645719982         0.469320060         0.115600004
     0.469320060         0.384400013         0.145719999
     0.530680009         0.615599987         0.854280018
     0.969320025         0.115600004         0.854280018
     0.030680001         0.884400013         0.145719999
     0.530680009         0.884400013         0.354279984
     0.469320060         0.115600004         0.645719982
     0.030680001         0.615599987         0.645719982
     0.969320025         0.384400013         0.354279984
     0.604280018         0.634400013         0.219320060
     0.395720016         0.365599987         0.780679975
     0.895719982         0.365599987         0.719320025
     0.104280001         0.634400013         0.280680009
     0.395720016         0.134399996         0.280680009
     0.604280018         0.865599987         0.719320025
     0.104280001         0.865599987         0.780679975
     0.895719982         0.134399996         0.219320060
     0.219320060         0.604280018         0.634400013
     0.780679975         0.395720016         0.365599987
     0.719320025         0.895719982         0.365599987
     0.280680009         0.104280001         0.634400013
     0.280680009         0.395720016         0.134399996
     0.719320025         0.604280018         0.865599987
     0.780679975         0.104280001         0.865599987
     0.219320060         0.895719982         0.134399996
     0.634400013         0.219320060         0.604280018
     0.365599987         0.780679975         0.395720016
     0.365599987         0.719320025         0.895719982
     0.634400013         0.280680009         0.104280001
     0.134399996         0.280680009         0.395720016
     0.865599987         0.719320025         0.604280018
     0.865599987         0.780679975         0.104280001
     0.134399996         0.219320060         0.895719982
     0.384400013         0.854280018         0.030680001
     0.615599987         0.145719999         0.969320025
     0.115600004         0.145719999         0.530680009
     0.884400013         0.854280018         0.469320060
     0.884400013         0.645719982         0.969320025
     0.115600004         0.354279984         0.030680001
     0.615599987         0.354279984         0.469320060
     0.384400013         0.645719982         0.530680009
     0.354279984         0.469320060         0.615599987
     0.645719982         0.530680009         0.384400013
     0.645719982         0.969320025         0.884400013
     0.354279984         0.030680001         0.115600004
     0.145719999         0.530680009         0.115600004
     0.854280018         0.469320060         0.884400013
     0.854280018         0.030680001         0.384400013
     0.145719999         0.969320025         0.615599987
     0.969320025         0.884400013         0.645719982
     0.030680001         0.115600004         0.354279984
     0.469320060         0.615599987         0.354279984
     0.530680009         0.384400013         0.645719982
     0.030680001         0.384400013         0.854280018
     0.969320025         0.615599987         0.145719999
     0.530680009         0.115600004         0.145719999
     0.469320060         0.884400013         0.854280018
     0.125000000         0.125000000         0.125000000
     0.875000035         0.875000035         0.875000035
     0.375000000         0.875000035         0.624999965
     0.624999965         0.125000000         0.375000000
     0.875000035         0.624999965         0.375000000
     0.125000000         0.375000000         0.624999965
     0.624999965         0.375000000         0.875000035
     0.375000000         0.624999965         0.125000000
     0.875000035         0.375000000         0.125000000
     0.125000000         0.624999965         0.875000035
     0.624999965         0.624999965         0.624999965
     0.375000000         0.375000000         0.375000000
     0.375000000         0.125000000         0.875000035
     0.624999965         0.875000035         0.125000000
     0.125000000         0.875000035         0.375000000
     0.875000035         0.125000000         0.624999965
     0.079099994         0.079099994         0.079099994
     0.920899971         0.920899971         0.920899971
     0.420899971         0.920899971         0.579100029
     0.579100029         0.079099994         0.420899971
     0.920899971         0.579100029         0.420899971
     0.079099994         0.420899971         0.579100029
     0.579100029         0.420899971         0.920899971
     0.420899971         0.579100029         0.079099994
     0.829100029         0.329100029         0.170900006
     0.170900006         0.670899971         0.829100029
     0.670899971         0.670899971         0.670899971
     0.329100029         0.329100029         0.329100029
     0.329100029         0.170900006         0.829100029
     0.670899971         0.829100029         0.170900006
     0.170900006         0.829100029         0.329100029
     0.829100029         0.170900006         0.670899971
     0.600600002         0.554799983         0.640199992
     0.399399998         0.445199983         0.359799973
     0.399399998         0.054800000         0.859800008
     0.600600002         0.945200052         0.140200001
     0.100599993         0.945200052         0.359799973
     0.899399998         0.054800000         0.640199992
     0.899399998         0.445199983         0.140200001
     0.100599993         0.554799983         0.859800008     
     0.304800017         0.850600002         0.609800008
     0.695200052         0.149399998         0.390200027
     0.804799948         0.649399998         0.390200027
     0.195200000         0.350600002         0.609800008
     0.695200052         0.350600002         0.890199992
     0.304800017         0.649399998         0.109799999
     0.195200000         0.149399998         0.109799999
     0.804799948         0.850600002         0.890199992
